p cnf 100 1
100 0
w 1 0.594038
w 2 1 0.947665
w 2 -1 0.679975
w 3 2 1
w 3 -2 0
w 4 3 0.00189419
w 4 -3 0.715672
w 5 4 0
w 5 -4 1
w 6 5 1
w 6 -5 0
w 7 6 0
w 7 -6 1
w 8 7 0
w 8 -7 1
w 9 8 0
w 9 -8 1
w 10 9 1
w 10 -9 0
w 11 1 0.689838
w 11 -1 0.55708
w 12 11 2 0.0279273
w 12 11 -2 0.00359662
w 12 -11 2 0.955829
w 12 -11 -2 0.534797
w 13 12 3 0
w 13 12 -3 0
w 13 -12 3 1
w 13 -12 -3 0
w 14 13 4 0.970479
w 14 13 -4 0.576665
w 14 -13 4 0.798387
w 14 -13 -4 0.972373
w 15 14 5 0
w 15 14 -5 1
w 15 -14 5 1
w 15 -14 -5 1
w 16 15 6 0.690314
w 16 15 -6 0.288264
w 16 -15 6 0.496255
w 16 -15 -6 0.83286
w 17 16 7 0
w 17 16 -7 1
w 17 -16 7 0
w 17 -16 -7 0
w 18 17 8 0.10982
w 18 17 -8 0.405643
w 18 -17 8 0.802554
w 18 -17 -8 0.0656493
w 19 18 9 0.853668
w 19 18 -9 0.539589
w 19 -18 9 0.0692747
w 19 -18 -9 0.721022
w 20 19 10 0.878085
w 20 19 -10 0.6915
w 20 -19 10 0.537859
w 20 -19 -10 0.676472
w 21 11 0.830196
w 21 -11 0.935928
w 22 21 12 1
w 22 21 -12 0
w 22 -21 12 0
w 22 -21 -12 1
w 23 22 13 0
w 23 22 -13 1
w 23 -22 13 1
w 23 -22 -13 1
w 24 23 14 0.658884
w 24 23 -14 0.0555916
w 24 -23 14 0.907946
w 24 -23 -14 0.0645266
w 25 24 15 0.973595
w 25 24 -15 0.00496659
w 25 -24 15 0.711814
w 25 -24 -15 0.513185
w 26 25 16 1
w 26 25 -16 1
w 26 -25 16 1
w 26 -25 -16 0
w 27 26 17 0
w 27 26 -17 0
w 27 -26 17 0
w 27 -26 -17 1
w 28 27 18 0.334016
w 28 27 -18 0.414023
w 28 -27 18 0.0851887
w 28 -27 -18 0.515912
w 29 28 19 0.67848
w 29 28 -19 0.530669
w 29 -28 19 0.159334
w 29 -28 -19 0.959648
w 30 29 20 0.957461
w 30 29 -20 0.618532
w 30 -29 20 0.842895
w 30 -29 -20 0.865407
w 31 21 0.70104
w 31 -21 0.839002
w 32 31 22 0.412854
w 32 31 -22 0.352186
w 32 -31 22 0.762267
w 32 -31 -22 0.84569
w 33 32 23 0.714593
w 33 32 -23 0.970026
w 33 -32 23 0.838803
w 33 -32 -23 0.343391
w 34 33 24 0.681236
w 34 33 -24 0.908117
w 34 -33 24 0.746389
w 34 -33 -24 0.0152521
w 35 34 25 1
w 35 34 -25 1
w 35 -34 25 1
w 35 -34 -25 0
w 36 35 26 0
w 36 35 -26 1
w 36 -35 26 0
w 36 -35 -26 0
w 37 36 27 0
w 37 36 -27 1
w 37 -36 27 1
w 37 -36 -27 0
w 38 37 28 0.459321
w 38 37 -28 0.805925
w 38 -37 28 0.0471137
w 38 -37 -28 0.221588
w 39 38 29 0.873679
w 39 38 -29 0.936181
w 39 -38 29 0.621641
w 39 -38 -29 0.712482
w 40 39 30 0
w 40 39 -30 1
w 40 -39 30 1
w 40 -39 -30 0
w 41 31 0
w 41 -31 1
w 42 41 32 0.940134
w 42 41 -32 0.383552
w 42 -41 32 0.467899
w 42 -41 -32 0.00196716
w 43 42 33 1
w 43 42 -33 1
w 43 -42 33 0
w 43 -42 -33 0
w 44 43 34 0.263054
w 44 43 -34 0.797138
w 44 -43 34 0.936204
w 44 -43 -34 0.957981
w 45 44 35 1
w 45 44 -35 1
w 45 -44 35 0
w 45 -44 -35 1
w 46 45 36 0
w 46 45 -36 1
w 46 -45 36 1
w 46 -45 -36 0
w 47 46 37 0.881487
w 47 46 -37 0.521525
w 47 -46 37 0.393944
w 47 -46 -37 0.391315
w 48 47 38 1
w 48 47 -38 0
w 48 -47 38 0
w 48 -47 -38 1
w 49 48 39 1
w 49 48 -39 0
w 49 -48 39 1
w 49 -48 -39 1
w 50 49 40 0.861658
w 50 49 -40 0.70785
w 50 -49 40 0.666485
w 50 -49 -40 0.819639
w 51 41 0.408613
w 51 -41 0.824734
w 52 51 42 0
w 52 51 -42 1
w 52 -51 42 0
w 52 -51 -42 0
w 53 52 43 1
w 53 52 -43 1
w 53 -52 43 0
w 53 -52 -43 1
w 54 53 44 0.67368
w 54 53 -44 0.823183
w 54 -53 44 0.213893
w 54 -53 -44 0.00775837
w 55 54 45 0.16116
w 55 54 -45 0.343804
w 55 -54 45 0.789525
w 55 -54 -45 0.0460308
w 56 55 46 0.388129
w 56 55 -46 0.956744
w 56 -55 46 0.261233
w 56 -55 -46 0.249788
w 57 56 47 0.927718
w 57 56 -47 0.069427
w 57 -56 47 0.628903
w 57 -56 -47 0.336331
w 58 57 48 0.0712583
w 58 57 -48 0.138688
w 58 -57 48 0.597668
w 58 -57 -48 0.927841
w 59 58 49 0.892431
w 59 58 -49 0.478223
w 59 -58 49 0.169428
w 59 -58 -49 0.172168
w 60 59 50 0.903954
w 60 59 -50 0.845848
w 60 -59 50 0.733274
w 60 -59 -50 0.117847
w 61 51 0.331323
w 61 -51 0.279007
w 62 61 52 1
w 62 61 -52 1
w 62 -61 52 0
w 62 -61 -52 1
w 63 62 53 0.758765
w 63 62 -53 0.946375
w 63 -62 53 0.917313
w 63 -62 -53 0.828192
w 64 63 54 0.253644
w 64 63 -54 0.722353
w 64 -63 54 0.646536
w 64 -63 -54 0.392332
w 65 64 55 1
w 65 64 -55 1
w 65 -64 55 0
w 65 -64 -55 1
w 66 65 56 0.384621
w 66 65 -56 0.962691
w 66 -65 56 0.422142
w 66 -65 -56 0.230469
w 67 66 57 0.539988
w 67 66 -57 0.084076
w 67 -66 57 0.0272882
w 67 -66 -57 0.818995
w 68 67 58 0
w 68 67 -58 1
w 68 -67 58 1
w 68 -67 -58 1
w 69 68 59 0
w 69 68 -59 0
w 69 -68 59 1
w 69 -68 -59 1
w 70 69 60 1
w 70 69 -60 1
w 70 -69 60 1
w 70 -69 -60 0
w 71 61 1
w 71 -61 0
w 72 71 62 0.4989
w 72 71 -62 0.220978
w 72 -71 62 0.429679
w 72 -71 -62 0.883521
w 73 72 63 1
w 73 72 -63 1
w 73 -72 63 0
w 73 -72 -63 1
w 74 73 64 1
w 74 73 -64 1
w 74 -73 64 0
w 74 -73 -64 1
w 75 74 65 0
w 75 74 -65 1
w 75 -74 65 0
w 75 -74 -65 0
w 76 75 66 0
w 76 75 -66 1
w 76 -75 66 0
w 76 -75 -66 1
w 77 76 67 1
w 77 76 -67 0
w 77 -76 67 1
w 77 -76 -67 0
w 78 77 68 0
w 78 77 -68 1
w 78 -77 68 1
w 78 -77 -68 0
w 79 78 69 0
w 79 78 -69 1
w 79 -78 69 0
w 79 -78 -69 1
w 80 79 70 1
w 80 79 -70 0
w 80 -79 70 0
w 80 -79 -70 0
w 81 71 0
w 81 -71 1
w 82 81 72 0.0698245
w 82 81 -72 0.777275
w 82 -81 72 0.949172
w 82 -81 -72 0.222664
w 83 82 73 0
w 83 82 -73 1
w 83 -82 73 1
w 83 -82 -73 1
w 84 83 74 1
w 84 83 -74 0
w 84 -83 74 1
w 84 -83 -74 1
w 85 84 75 0
w 85 84 -75 0
w 85 -84 75 1
w 85 -84 -75 0
w 86 85 76 0.537564
w 86 85 -76 0.377924
w 86 -85 76 0.482994
w 86 -85 -76 0.85704
w 87 86 77 1
w 87 86 -77 1
w 87 -86 77 1
w 87 -86 -77 0
w 88 87 78 1
w 88 87 -78 0
w 88 -87 78 0
w 88 -87 -78 0
w 89 88 79 0.632348
w 89 88 -79 0.321962
w 89 -88 79 0.663528
w 89 -88 -79 0.292193
w 90 89 80 1
w 90 89 -80 0
w 90 -89 80 1
w 90 -89 -80 1
w 91 81 0.182824
w 91 -81 0.93671
w 92 91 82 1
w 92 91 -82 0
w 92 -91 82 1
w 92 -91 -82 1
w 93 92 83 0
w 93 92 -83 0
w 93 -92 83 0
w 93 -92 -83 1
w 94 93 84 1
w 94 93 -84 0
w 94 -93 84 1
w 94 -93 -84 1
w 95 94 85 1
w 95 94 -85 0
w 95 -94 85 0
w 95 -94 -85 1
w 96 95 86 0.361752
w 96 95 -86 0.739527
w 96 -95 86 0.248191
w 96 -95 -86 0.938786
w 97 96 87 0.757164
w 97 96 -87 0.924559
w 97 -96 87 0.14155
w 97 -96 -87 0.693874
w 98 97 88 0
w 98 97 -88 0
w 98 -97 88 1
w 98 -97 -88 1
w 99 98 89 0.0625101
w 99 98 -89 0.570553
w 99 -98 89 0.165711
w 99 -98 -89 0.515111
w 100 99 90 1
w 100 99 -90 1
w 100 -99 90 0
w 100 -99 -90 0